p cnf 2584 2421
c ind 906 907 908 909 910 911 912 913 914 915 0
c ind 916 917 960 961 962 963 964 965 966 967 0
c ind 968 969 970 971 972 973 974 975 976 977 0
c ind 978 979 980 981 982 983 984 985 986 987 0
c ind 988 989 990 991 992 993 994 995 996 997 0
c ind 998 999 1000 1001 1002 1003 1004 1005 1006 1007 0
c ind 1008 1009 1010 1011 1012 1013 1014 1015 1016 1017 0
c ind 1018 1019 1020 1021 1022 1023 1024 1068 1069 1070 0
c ind 1071 1072 1073 1074 1075 1076 1077 1078 1079 1080 0
c ind 1081 1082 1083 1084 1085 1086 1087 1088 1089 1090 0
c ind 1091 1092 1093 1094 1095 1096 1097 1098 1099 1100 0
c ind 1213 1216 1217 1218 1219 1220 1221 1101 1222 1102 0
c ind 1223 1224 1225 1103 1226 1104 1227 1228 1229 1230 0
c ind 1231 1232 1233 1234 1235 1236 1237 1238 1239 1105 0
c ind 832 1106 833 1107 834 1108 835 836 837 838 0
c ind 839 840 841 842 843 844 1240 1109 845 846 0
c ind 847 848 849 1110 1111 850 851 1112 852 1113 0
c ind 1025 1026 1027 1028 1029 1030 1031 1114 1032 1033 0
c ind 1034 1035 1036 1037 1115 1038 1116 1039 1040 1041 0
c ind 1042 1117 1118 1043 1044 1045 918 919 920 921 0
c ind 922 923 924 925 926 927 928 929 1119 1241 0
c ind 930 1120 931 1121 1122 932 933 934 935 936 0
c ind 937 938 939 940 941 942 1123 943 944 945 0
c ind 946 947 948 1124 949 1125 950 951 1126 1127 0
c ind 952 953 954 955 956 957 958 959 1128 1129 0
c ind 768 769 770 1130 771 772 773 774 775 776 0
c ind 777 1242 778 779 780 781 782 783 784 785 0
c ind 1131 786 787 788 1132 1046 1133 1047 1048 1134 0
c ind 1135 1049 1050 1051 1052 1053 1054 1055 1056 1057 0
c ind 1058 1059 1060 1061 1062 1063 1064 1065 1066 1067 0
c ind 1189 1190 1191 1192 1193 1194 1195 1196 1197 1198 0
c ind 1199 1200 1201 1202 1203 1204 1205 1206 1207 1208 0
c ind 1209 1210 1211 1212 1161 1162 1163 1164 1165 1166 0
c ind 1167 1168 1169 1170 1171 1172 1173 1174 1214 1175 0
c ind 1176 1177 1178 1179 1180 1181 1182 1183 1184 1185 0
c ind 1186 1187 1188 789 790 791 792 793 794 795 0
c ind 796 797 798 799 800 801 802 803 804 805 0
c ind 806 807 808 809 810 811 812 813 1215 814 0
c ind 815 816 817 818 819 820 821 822 823 824 0
c ind 825 826 827 828 829 830 831 853 854 855 0
c ind 856 857 858 859 860 861 862 863 864 865 0
c ind 866 867 868 869 870 871 872 873 874 875 0
c ind 876 877 878 879 880 881 882 883 884 885 0
c ind 886 887 888 889 890 891 892 893 894 895 0
c ind 896 897 898 899 900 901 902 903 904 905 0
614 -615 732 0
614 -615 644 0
-614 615 0
-644 -732 -614 0
615 -616 631 -632 0
615 -616 630 -632 0
-615 632 0
-615 616 0
-630 -631 -615 0
616 617 -621 0
-616 -617 0
-616 621 0
-618 -834 617 0
-620 -834 617 0
-619 -834 617 0
-617 834 0
-617 618 619 620 0
618 -840 841 842 0
-618 840 0
-618 -842 0
-618 -841 0
619 840 843 844 0
-619 -840 0
-619 -844 0
-619 -843 0
620 -835 836 837 0
-620 835 0
-620 -837 0
-620 -836 0
621 622 626 -932 -1032 0
-621 1032 0
-621 -626 0
-621 932 0
-621 -622 0
623 933 622 934 935 0
-622 -623 0
-622 -935 0
-622 -933 0
-622 -934 0
623 624 -938 0
623 624 625 -939 0
-623 -624 0
-623 -625 938 0
-623 938 939 0
624 936 -937 0
-624 -936 0
-624 937 0
625 944 945 0
625 944 952 953 0
-625 -944 0
-625 -945 -952 0
-625 -945 -953 0
627 1033 626 1034 1035 0
-626 -627 0
-626 -1035 0
-626 -1033 0
-626 -1034 0
627 628 -1038 0
627 628 629 -1039 0
-627 -628 0
-627 -629 1038 0
-627 1038 1039 0
628 1036 -1037 0
-628 -1036 0
-628 1037 0
629 1044 1045 0
629 924 925 1044 0
-629 -1044 0
-629 -925 -1045 0
-629 -924 -1045 0
630 812 0
630 -813 819 0
630 813 820 0
-630 -812 813 -820 0
-630 -812 -813 -819 0
631 812 0
631 -813 -819 0
631 813 -820 0
-631 -812 813 820 0
-631 -812 -813 819 0
632 -633 643 -1214 0
632 -633 643 1215 0
-632 633 0
-632 -643 0
1214 -1215 -632 0
633 -636 1183 0
633 -636 1176 0
633 634 -636 0
-633 636 0
-634 -1176 -633 -1183 0
634 -635 -1184 1185 0
-634 1184 0
-634 -1185 0
-634 635 0
635 -789 790 1187 -1188 0
-635 1188 0
-635 -1187 0
-635 789 0
-635 -790 0
636 637 -640 642 0
636 637 -640 1213 0
-636 640 0
-636 -637 0
-642 -1213 -636 0
-638 -639 637 -1165 0
-638 -639 637 -1166 0
-637 639 0
-637 638 0
-637 1165 1166 0
638 1168 1169 1170 1171 0
-638 -1171 0
-638 -1170 0
-638 -1168 0
-638 -1169 0
639 -1162 -1163 -1164 1167 0
-639 1164 0
-639 -1167 0
-639 1162 0
-639 1163 0
640 -641 -962 -991 -1020 0
-640 641 0
-640 962 0
-640 1020 0
-640 991 0
641 -862 -891 0
-641 862 0
-641 891 0
642 1065 1066 1067 0
-642 -1065 0
-642 -1067 0
-642 -1066 0
1241 1242 643 0
-643 -1241 0
-643 -1242 0
644 -645 -675 -698 -723 0
-644 723 0
-644 645 0
-644 698 0
-644 675 0
645 664 -1518 0
645 646 664 0
-645 -664 0
-645 -646 1518 0
646 -648 -647 0
646 662 -647 0
-646 647 0
-646 648 -662 0
631 647 -640 0
630 647 -640 0
640 -647 0
-630 -631 -647 0
648 -649 -661 -1135 0
648 649 -650 -661 0
-648 661 0
-648 -649 1135 0
-648 649 650 0
649 807 -809 0
-649 -807 0
-649 809 0
650 -651 -1134 0
650 651 -652 0
-650 -651 1134 0
-650 651 652 0
651 1179 -1181 0
-651 -1179 0
-651 1181 0
652 653 637 660 0
652 653 637 -657 0
-637 -652 0
-652 -653 0
-652 657 -660 0
653 -655 -1207 1213 0
653 654 1207 1213 0
-653 -1213 0
-653 655 -1207 0
-653 -654 1207 0
654 -1131 -616 0
-654 1131 0
616 -654 0
655 -656 1132 0
654 655 656 0
-655 -656 -1132 0
-654 -655 656 0
656 1052 -1054 0
-656 -1052 0
-656 1054 0
655 657 -658 0
-655 -657 0
-657 658 0
658 659 -1065 0
658 659 -1066 0
658 659 -1067 0
-658 -659 0
-658 1065 1066 1067 0
659 1194 -1196 0
-659 -1194 0
-659 1196 0
660 1133 -1213 0
659 660 -1213 0
-660 1213 0
-659 -660 -1133 0
661 -1176 1183 0
-661 1176 0
-661 -1183 0
662 663 -1176 0
650 652 662 0
652 662 663 0
650 662 -1176 0
-652 -662 1176 0
-650 -662 -663 0
634 663 -1176 -1183 0
-663 1176 0
-663 1183 0
-634 -663 0
664 -665 1141 0
664 665 -1141 0
-664 -665 -1141 0
-664 665 1141 0
665 -666 -647 0
665 674 -647 0
647 -665 0
-665 666 -674 0
649 -661 666 -667 0
-649 -661 666 -1104 0
661 -666 0
649 -666 667 0
-649 -666 1104 0
-651 667 -1103 0
651 667 -668 0
-651 -667 1103 0
651 -667 668 0
668 669 637 673 0
668 669 637 -672 0
-637 -668 0
-668 -669 0
-668 672 -673 0
669 670 1102 -1213 0
659 669 670 -1213 0
-669 1213 0
-669 -670 0
-659 -669 -1102 0
-658 670 671 0
658 -670 0
-670 -671 0
656 671 1215 0
-656 671 1101 0
616 656 671 0
-656 -671 -1101 0
656 -671 -616 -1215 0
672 1207 -616 -1215 0
656 672 -616 -1215 0
616 -672 0
-672 1215 0
-656 -672 -1207 0
656 673 1213 0
673 1101 1213 0
673 1207 1213 0
-673 -1213 0
-656 -673 -1101 -1207 0
667 674 -1176 0
663 668 674 0
667 668 674 0
663 674 -1176 0
-663 -667 -674 0
-668 -674 1176 0
675 -647 676 685 693 0
-675 -693 0
-675 -685 0
647 -675 0
-675 -676 0
682 684 676 -1176 0
677 682 676 684 0
-676 -684 0
-676 -682 0
-676 -677 1176 0
677 678 637 681 0
677 678 637 -680 0
-637 -677 0
-677 -678 0
-677 680 -681 0
678 -679 -1207 1213 0
616 678 1207 1213 0
-678 -1213 0
-678 679 -1207 0
-678 1207 -616 0
616 656 679 0
-656 679 1105 0
656 -679 -616 0
-656 -679 -1105 0
-658 679 680 0
658 -680 0
-679 -680 0
681 1106 -1213 0
659 681 -1213 0
-681 1213 0
-659 -681 -1106 0
649 -661 682 683 0
-649 -661 682 -1108 0
661 -682 0
-649 -682 1108 0
649 -682 -683 0
-651 683 1107 0
651 677 683 0
-651 -683 -1107 0
651 -677 -683 0
-663 683 684 0
663 -684 0
-683 -684 0
687 1176 685 0
651 686 685 687 0
-685 -687 0
-685 -686 -1176 0
-651 -685 -1176 0
-649 686 -1122 1183 0
-686 1122 0
-686 -1183 0
649 -686 0
687 688 637 692 0
687 688 637 -691 0
-637 -687 0
-687 -688 0
-687 691 -692 0
688 -690 -1207 1213 0
688 689 1207 1213 0
-688 -1213 0
-688 690 -1207 0
-688 -689 1207 0
689 -1214 -616 0
-689 1214 0
616 -689 0
-656 690 1119 0
656 689 690 0
-656 -690 -1119 0
656 -689 -690 0
-658 690 691 0
658 -691 0
-690 -691 0
692 1120 -1213 0
659 692 -1213 0
-692 1213 0
-659 -692 -1120 0
686 -697 693 1121 0
686 694 693 -697 0
-693 697 0
-686 -693 0
-693 -694 -1121 0
694 695 696 0
635 694 695 -1176 0
-694 -695 0
-694 -696 1176 0
-635 -694 -696 0
-649 695 1183 0
-695 -1183 0
649 -695 0
696 -1183 -1184 1185 0
-696 1183 0
-696 1184 0
-696 -1185 0
-651 697 -1176 0
694 697 -1176 0
-697 1176 0
651 -694 -697 0
698 -699 -709 -1501 0
698 699 -709 1501 0
-698 709 0
-698 699 -1501 0
-698 -699 1501 0
699 706 -647 0
699 700 -647 -703 0
647 -699 0
-699 -700 -706 0
-699 703 -706 0
700 -702 -1207 1213 0
700 701 1207 1213 0
-700 -1213 0
-700 702 -1207 0
-700 -701 1207 0
701 -1114 -616 0
-701 1114 0
616 -701 0
-656 702 1115 0
656 701 702 0
-656 -702 -1115 0
656 -701 -702 0
703 -704 705 0
-658 702 703 -704 0
-703 704 0
658 -703 -705 0
-702 -703 -705 0
697 704 637 0
-637 -704 0
-697 -704 0
705 1116 -1213 0
659 705 -1213 0
-705 1213 0
-659 -705 -1116 0
649 706 707 0
661 706 707 0
706 707 1118 0
-706 -707 0
-649 -661 -706 -1118 0
-651 707 -708 -1117 0
-707 1117 0
651 -707 0
-707 708 0
-694 708 -1176 0
-708 1176 0
694 -708 0
709 -710 -716 1481 0
709 710 -716 -1481 0
-709 716 0
-709 710 1481 0
-709 -710 -1481 0
710 -711 -712 0
-710 711 0
-710 712 0
711 -1092 -621 1094 0
-711 1092 0
-711 -1094 0
621 -711 0
712 714 -633 0
712 713 -633 -812 0
633 -712 0
-714 812 -712 0
-713 -714 -712 0
-631 713 0
713 -821 827 0
713 821 828 0
631 -713 -821 -827 0
631 -713 821 -828 0
-630 -631 714 0
-630 714 -715 0
630 -714 0
631 -714 715 0
-631 715 0
715 821 -828 0
715 -821 -827 0
631 -715 -821 827 0
631 -715 821 828 0
716 -712 717 -720 0
716 -712 -717 -719 0
712 -716 0
-717 719 -716 0
717 720 -716 0
717 773 -1207 0
717 718 773 0
717 773 -1208 0
-717 -773 0
-717 -718 1207 1208 0
718 1209 1210 1211 1213 0
-718 -1213 0
-718 -1211 0
-718 -1209 0
-718 -1210 0
719 -1100 -1130 0
711 719 -1130 0
-719 1130 0
-711 -719 1100 0
720 722 -621 -1098 0
720 721 -621 722 0
621 -720 0
-720 -722 0
-720 -721 1098 0
721 -1092 1094 0
-721 1092 0
-721 -1094 0
-617 722 1092 0
722 1092 1129 1221 0
-722 -1092 0
-722 -1129 617 0
-722 -1221 617 0
723 -724 -1510 0
723 724 1510 0
-723 -724 1510 0
-723 724 -1510 0
724 730 -647 0
724 725 -647 -728 0
647 -724 0
-724 -725 -730 0
-724 728 -730 0
725 -727 -1207 1213 0
725 726 1207 1213 0
-725 -1213 0
-725 727 -1207 0
-725 -726 1207 0
726 -1123 -616 0
-726 1123 0
616 -726 0
-656 727 1124 0
656 726 727 0
-656 -727 -1124 0
656 -726 -727 0
-704 728 729 0
-658 -704 727 728 0
704 -728 0
658 -728 -729 0
-727 -728 -729 0
729 1125 -1213 0
659 729 -1213 0
-729 1213 0
-659 -729 -1125 0
649 730 731 0
661 730 731 0
730 731 1127 0
-730 -731 0
-649 -661 -730 -1127 0
-651 -708 731 -1126 0
-731 1126 0
651 -731 0
708 -731 0
732 -733 743 -1496 0
732 733 743 1496 0
-732 -743 0
-732 733 -1496 0
-732 -733 1496 0
733 -734 -647 0
733 742 -647 0
647 -733 0
-733 734 -742 0
649 -661 734 -735 0
-649 -661 734 -1113 0
661 -734 0
649 -734 735 0
-649 -734 1113 0
-651 735 -1112 0
651 735 -736 0
-651 -735 1112 0
651 -735 736 0
736 737 637 741 0
736 737 637 -740 0
-637 -736 0
-736 -737 0
-736 740 -741 0
737 -739 -1207 1213 0
737 738 1207 1213 0
-737 -1213 0
-737 739 -1207 0
-737 -738 1207 0
738 -1109 -616 0
-738 1109 0
616 -738 0
-656 739 1110 0
656 738 739 0
-656 -739 -1110 0
656 -738 -739 0
-658 739 740 0
658 -740 0
-739 -740 0
741 1111 -1213 0
659 741 -1213 0
-741 1213 0
-659 -741 -1111 0
735 742 -1176 0
663 736 742 0
735 736 742 0
663 742 -1176 0
-663 -735 -742 0
-736 -742 1176 0
646 743 -1518 0
-743 1518 0
-646 -743 0
745 -615 744 0
-646 2273 744 -615 0
646 -2273 744 -615 0
615 -744 0
646 -744 -745 2273 0
-646 -744 -745 -2273 0
-733 745 -746 -2251 0
733 745 -746 2251 0
-745 746 0
733 -2251 -745 0
-733 2251 -745 0
665 746 -747 -748 1896 0
-665 746 -747 -748 -1896 0
-746 748 0
665 -1896 -746 0
-746 747 0
-665 1896 -746 0
747 -716 -675 0
675 -747 0
716 -747 0
748 -749 -750 -2256 0
699 748 -749 -750 0
-748 750 0
-748 749 0
-699 2256 -748 0
-710 749 2236 0
710 749 -2236 0
-710 -2236 -749 0
710 2236 -749 0
724 750 2256 2265 0
-699 -724 750 -2265 0
-724 750 2256 -2265 0
-699 724 750 2265 0
-724 2265 -750 0
724 -2265 -750 0
699 -2256 -750 0
-733 751 -615 0
644 751 -615 0
-743 751 -615 0
615 -751 0
-644 733 743 -751 0
-724 752 -615 0
752 753 -615 0
675 752 -615 0
615 -752 0
724 -752 -675 -753 0
-698 753 -754 0
698 -753 0
-753 754 0
-645 743 754 0
645 -754 0
-743 -754 0
-699 755 -615 0
755 756 -615 0
754 755 -615 0
615 -755 0
699 -754 -755 -756 0
-709 756 -675 0
675 -756 0
709 -756 0
-646 757 -615 0
757 758 -615 0
615 -757 0
646 -757 -758 0
664 -756 758 0
-664 -758 0
756 -758 0
-665 759 -615 0
756 759 -615 0
615 -759 0
665 -756 -759 0
747 760 -615 0
710 760 -615 0
615 -760 0
-710 -760 -747 0
747 761 -615 0
615 -761 0
-747 -761 0
733 762 -615 0
644 762 -615 0
-743 762 -615 0
615 -762 0
-644 -733 743 -762 0
753 763 -615 0
675 763 -615 0
724 763 -615 0
615 -763 0
-724 -753 -675 -763 0
756 764 -615 0
699 764 -615 0
754 764 -615 0
615 -764 0
-699 -754 -756 -764 0
758 765 -615 0
646 765 -615 0
615 -765 0
-646 -758 -765 0
756 766 -615 0
665 766 -615 0
615 -766 0
-665 -756 -766 0
-710 767 -615 0
747 767 -615 0
615 -767 0
710 -767 -747 0
1 614 0
-1 -614 0
2 614 0
-2 -614 0
3 744 0
-3 -744 0
89 -751 0
-89 751 0
90 -752 0
-90 752 0
91 -755 0
-91 755 0
92 -757 0
-92 757 0
97 -759 0
-97 759 0
110 -760 0
-110 760 0
210 -761 0
-210 761 0
394 -762 0
-394 762 0
395 -763 0
-395 763 0
396 -764 0
-396 764 0
397 -765 0
-397 765 0
402 -766 0
-402 766 0
415 -767 0
-415 767 0
515 -761 0
-515 761 0
-89 -394 2364 0
89 -2364 0
394 -2364 0
89 -1496 0
-89 1496 0
-90 -395 2365 0
90 -2365 0
395 -2365 0
90 -1510 0
-90 1510 0
-91 -396 2366 0
91 -2366 0
396 -2366 0
91 -1501 0
-91 1501 0
-92 -397 2367 0
92 -2367 0
397 -2367 0
92 -1518 0
-92 1518 0
-97 -402 2372 0
97 -2372 0
402 -2372 0
97 -1141 0
-97 1141 0
-110 -415 2385 0
110 -2385 0
415 -2385 0
110 -1481 0
-110 1481 0
-210 -515 2485 0
210 -2485 0
515 -2485 0
210 -1337 0
-210 1337 0
-1 0
-2 0
3 0
4 0
5 0
6 0
7 0
8 0
9 0
10 0
11 0
12 0
13 0
14 0
15 0
16 0
17 0
18 0
19 0
20 0
21 0
22 0
23 0
24 0
25 0
26 0
27 0
28 0
29 0
30 0
31 0
32 0
33 0
34 0
35 0
36 0
37 0
38 0
39 0
40 0
41 0
42 0
43 0
44 0
45 0
46 0
47 0
48 0
49 0
50 0
51 0
52 0
53 0
54 0
55 0
56 0
57 0
58 0
59 0
60 0
61 0
62 0
63 0
64 0
65 0
66 0
67 0
68 0
69 0
70 0
71 0
72 0
73 0
74 0
75 0
76 0
77 0
78 0
79 0
80 0
81 0
82 0
83 0
84 0
85 0
86 0
87 0
88 0
93 0
94 0
95 0
96 0
98 0
99 0
100 0
101 0
102 0
103 0
104 0
105 0
106 0
107 0
108 0
109 0
111 0
112 0
113 0
114 0
115 0
116 0
117 0
118 0
119 0
120 0
121 0
122 0
123 0
124 0
125 0
126 0
127 0
128 0
129 0
130 0
131 0
132 0
133 0
134 0
135 0
136 0
137 0
138 0
139 0
140 0
141 0
142 0
143 0
144 0
145 0
146 0
147 0
148 0
149 0
150 0
151 0
152 0
153 0
154 0
155 0
156 0
-157 0
158 0
159 0
160 0
161 0
162 0
163 0
164 0
165 0
166 0
167 0
168 0
169 0
170 0
171 0
172 0
173 0
174 0
175 0
176 0
177 0
178 0
179 0
180 0
181 0
182 0
183 0
184 0
185 0
186 0
187 0
188 0
189 0
190 0
191 0
192 0
193 0
194 0
195 0
196 0
197 0
198 0
199 0
200 0
201 0
202 0
203 0
204 0
205 0
206 0
207 0
208 0
209 0
-210 0
211 0
212 0
213 0
214 0
215 0
216 0
217 0
218 0
219 0
-220 0
221 0
222 0
223 0
224 0
225 0
226 0
227 0
228 0
229 0
230 0
231 0
232 0
233 0
234 0
235 0
236 0
237 0
238 0
239 0
240 0
241 0
242 0
243 0
244 0
245 0
246 0
247 0
-248 0
249 0
250 0
251 0
252 0
253 0
254 0
255 0
256 0
257 0
258 0
259 0
260 0
261 0
262 0
263 0
264 0
265 0
266 0
267 0
268 0
269 0
270 0
271 0
272 0
273 0
274 0
275 0
276 0
277 0
278 0
279 0
280 0
281 0
282 0
283 0
284 0
285 0
286 0
287 0
288 0
289 0
290 0
291 0
292 0
293 0
294 0
295 0
296 0
297 0
298 0
299 0
300 0
301 0
302 0
303 0
304 0
305 0
306 0
307 0
308 0
-309 0
-310 0
-311 0
-312 0
-313 0
-314 0
-315 0
-316 0
-317 0
-318 0
-319 0
-320 0
-321 0
-322 0
-323 0
-324 0
-325 0
-326 0
-327 0
-328 0
-329 0
-330 0
-331 0
-332 0
-333 0
-334 0
-335 0
-336 0
-337 0
-338 0
-339 0
-340 0
-341 0
-342 0
-343 0
-344 0
-345 0
-346 0
-347 0
-348 0
-349 0
-350 0
-351 0
-352 0
-353 0
-354 0
-355 0
-356 0
-357 0
-358 0
-359 0
-360 0
-361 0
-362 0
-363 0
-364 0
-365 0
-366 0
-367 0
-368 0
-369 0
-370 0
-371 0
-372 0
-373 0
-374 0
-375 0
-376 0
-377 0
-378 0
-379 0
-380 0
-381 0
-382 0
-383 0
-384 0
-385 0
-386 0
-387 0
-388 0
-389 0
-390 0
-391 0
-392 0
-393 0
-398 0
-399 0
-400 0
-401 0
-403 0
-404 0
-405 0
-406 0
-407 0
-408 0
-409 0
-410 0
-411 0
-412 0
-413 0
-414 0
-416 0
-417 0
-418 0
-419 0
-420 0
-421 0
-422 0
-423 0
-424 0
-425 0
-426 0
-427 0
-428 0
-429 0
-430 0
-431 0
-432 0
-433 0
-434 0
-435 0
-436 0
-437 0
-438 0
-439 0
-440 0
-441 0
-442 0
-443 0
-444 0
-445 0
-446 0
-447 0
-448 0
-449 0
-450 0
-451 0
-452 0
-453 0
-454 0
-455 0
-456 0
-457 0
-458 0
-459 0
-460 0
-461 0
462 0
-463 0
-464 0
-465 0
-466 0
-467 0
-468 0
-469 0
-470 0
-471 0
-472 0
-473 0
-474 0
-475 0
-476 0
-477 0
-478 0
-479 0
-480 0
-481 0
-482 0
-483 0
-484 0
-485 0
-486 0
-487 0
-488 0
-489 0
-490 0
-491 0
-492 0
-493 0
-494 0
-495 0
-496 0
-497 0
-498 0
-499 0
-500 0
-501 0
-502 0
-503 0
-504 0
-505 0
-506 0
-507 0
-508 0
-509 0
-510 0
-511 0
-512 0
-513 0
-514 0
-515 0
-516 0
-517 0
-518 0
-519 0
-520 0
-521 0
-522 0
-523 0
-524 0
525 0
-526 0
-527 0
-528 0
-529 0
-530 0
-531 0
-532 0
-533 0
-534 0
-535 0
-536 0
-537 0
-538 0
-539 0
-540 0
-541 0
-542 0
-543 0
-544 0
-545 0
-546 0
-547 0
-548 0
-549 0
-550 0
-551 0
-552 0
553 0
-554 0
-555 0
-556 0
-557 0
-558 0
-559 0
-560 0
-561 0
-562 0
-563 0
-564 0
-565 0
-566 0
-567 0
-568 0
-569 0
-570 0
-571 0
-572 0
-573 0
-574 0
-575 0
-576 0
-577 0
-578 0
-579 0
-580 0
-581 0
-582 0
-583 0
-584 0
-585 0
-586 0
-587 0
-588 0
-589 0
-590 0
-591 0
-592 0
-593 0
-594 0
-595 0
-596 0
-597 0
-598 0
-599 0
-600 0
-601 0
-602 0
-603 0
-604 0
-605 0
-606 0
-607 0
-608 0
-609 0
-610 0
-611 0
-612 0
-613 0
614 0
615 0
616 0
-617 0
621 0
-622 0
-626 0
632 0
633 0
636 0
-637 0
640 0
641 0
-643 0
647 0
675 0
-676 0
-685 0
-693 0
712 0
716 0
-744 0
745 0
746 0
747 0
748 0
749 0
750 0
-761 0
862 0
891 0
932 0
962 0
991 0
1020 0
1032 0
-1136 0
1137 0
1138 0
1139 0
1140 0
1142 0
1143 0
1144 0
1145 0
1146 0
1147 0
1148 0
1149 0
1150 0
1151 0
1152 0
1153 0
1154 0
1155 0
1156 0
1157 0
1158 0
1159 0
1160 0
1243 0
1244 0
1245 0
1246 0
1247 0
1248 0
1249 0
1250 0
1251 0
1252 0
1253 0
1254 0
1255 0
1256 0
1257 0
1258 0
1259 0
1260 0
1261 0
1262 0
1263 0
1264 0
1265 0
1266 0
1267 0
1268 0
1269 0
1270 0
1271 0
1272 0
1273 0
1274 0
1275 0
1276 0
1277 0
1278 0
1279 0
1280 0
-1281 0
1282 0
1283 0
1284 0
1285 0
1286 0
1287 0
1288 0
1289 0
1290 0
1291 0
1292 0
1293 0
1294 0
1295 0
1296 0
1297 0
1298 0
1299 0
1300 0
1301 0
1302 0
1303 0
1304 0
1305 0
1306 0
1307 0
1308 0
-1309 0
1310 0
1311 0
1312 0
1313 0
1314 0
1315 0
1316 0
1317 0
1318 0
1319 0
1320 0
1321 0
1322 0
1323 0
1324 0
1325 0
1326 0
1327 0
1328 0
1329 0
1330 0
1331 0
1332 0
1333 0
1334 0
1335 0
1336 0
-1337 0
1338 0
1339 0
1340 0
1341 0
1342 0
1343 0
1344 0
1345 0
1346 0
1347 0
1348 0
1349 0
1350 0
1351 0
1352 0
1353 0
1354 0
1355 0
1356 0
1357 0
1358 0
1359 0
1360 0
1361 0
1362 0
1363 0
1364 0
1365 0
1366 0
1367 0
1368 0
1369 0
1370 0
1371 0
1372 0
1373 0
1374 0
1375 0
1376 0
1377 0
1378 0
1379 0
1380 0
1381 0
1382 0
1383 0
1384 0
1385 0
1386 0
1387 0
1388 0
1389 0
1390 0
1391 0
1392 0
1393 0
1394 0
1395 0
1396 0
1397 0
1398 0
1399 0
1400 0
1401 0
1402 0
1403 0
1404 0
1405 0
1406 0
1407 0
1408 0
1409 0
1410 0
1411 0
1412 0
1413 0
1414 0
1415 0
1416 0
1417 0
1418 0
1419 0
1420 0
1421 0
1422 0
1423 0
1424 0
1425 0
1426 0
1427 0
1428 0
1429 0
1430 0
1431 0
1432 0
1433 0
1434 0
1435 0
1436 0
1437 0
1438 0
1439 0
1440 0
1441 0
1442 0
1443 0
1444 0
1445 0
1446 0
1447 0
1448 0
1449 0
1450 0
1451 0
1452 0
1453 0
1454 0
1455 0
1456 0
1457 0
1458 0
1459 0
1460 0
1461 0
1462 0
1463 0
1464 0
1465 0
1466 0
1467 0
1468 0
1469 0
1470 0
1471 0
1472 0
1473 0
1474 0
1475 0
1476 0
1477 0
1478 0
1479 0
1480 0
1482 0
1483 0
1484 0
1485 0
1486 0
1487 0
1488 0
1489 0
1490 0
1491 0
1492 0
1493 0
1494 0
1495 0
1497 0
1498 0
1499 0
1500 0
1502 0
1503 0
1504 0
1505 0
1506 0
1507 0
1508 0
1509 0
1511 0
1512 0
1513 0
1514 0
1515 0
1516 0
1517 0
1519 0
1520 0
1521 0
1522 0
2278 0
-2279 0
-2280 0
-2281 0
-2282 0
-2283 0
-2284 0
-2285 0
-2286 0
-2287 0
-2288 0
-2289 0
-2290 0
-2291 0
-2292 0
-2293 0
-2294 0
-2295 0
-2296 0
-2297 0
-2298 0
-2299 0
-2300 0
-2301 0
-2302 0
-2303 0
-2304 0
-2305 0
-2306 0
-2307 0
-2308 0
-2309 0
-2310 0
-2311 0
-2312 0
-2313 0
-2314 0
-2315 0
-2316 0
-2317 0
-2318 0
-2319 0
-2320 0
-2321 0
-2322 0
-2323 0
-2324 0
-2325 0
-2326 0
-2327 0
-2328 0
-2329 0
-2330 0
-2331 0
-2332 0
-2333 0
-2334 0
-2335 0
-2336 0
-2337 0
-2338 0
-2339 0
-2340 0
-2341 0
-2342 0
-2343 0
-2344 0
-2345 0
-2346 0
-2347 0
-2348 0
-2349 0
-2350 0
-2351 0
-2352 0
-2353 0
-2354 0
-2355 0
-2356 0
-2357 0
-2358 0
-2359 0
-2360 0
-2361 0
-2362 0
-2363 0
-2368 0
-2369 0
-2370 0
-2371 0
-2373 0
-2374 0
-2375 0
-2376 0
-2377 0
-2378 0
-2379 0
-2380 0
-2381 0
-2382 0
-2383 0
-2384 0
-2386 0
-2387 0
-2388 0
-2389 0
-2390 0
-2391 0
-2392 0
-2393 0
-2394 0
-2395 0
-2396 0
-2397 0
-2398 0
-2399 0
-2400 0
-2401 0
-2402 0
-2403 0
-2404 0
-2405 0
-2406 0
-2407 0
-2408 0
-2409 0
-2410 0
-2411 0
-2412 0
-2413 0
-2414 0
-2415 0
-2416 0
-2417 0
-2418 0
-2419 0
-2420 0
-2421 0
-2422 0
-2423 0
-2424 0
-2425 0
-2426 0
-2427 0
-2428 0
-2429 0
-2430 0
-2431 0
-2432 0
-2433 0
-2434 0
-2435 0
-2436 0
-2437 0
-2438 0
-2439 0
-2440 0
-2441 0
-2442 0
-2443 0
-2444 0
-2445 0
-2446 0
-2447 0
-2448 0
-2449 0
-2450 0
-2451 0
-2452 0
-2453 0
-2454 0
-2455 0
-2456 0
-2457 0
-2458 0
-2459 0
-2460 0
-2461 0
-2462 0
-2463 0
-2464 0
-2465 0
-2466 0
-2467 0
-2468 0
-2469 0
-2470 0
-2471 0
-2472 0
-2473 0
-2474 0
-2475 0
-2476 0
-2477 0
-2478 0
-2479 0
-2480 0
-2481 0
-2482 0
-2483 0
-2484 0
-2485 0
-2486 0
-2487 0
-2488 0
-2489 0
-2490 0
-2491 0
-2492 0
-2493 0
-2494 0
-2495 0
-2496 0
-2497 0
-2498 0
-2499 0
-2500 0
-2501 0
-2502 0
-2503 0
-2504 0
-2505 0
-2506 0
-2507 0
-2508 0
-2509 0
-2510 0
-2511 0
-2512 0
-2513 0
-2514 0
-2515 0
-2516 0
-2517 0
-2518 0
-2519 0
-2520 0
-2521 0
-2522 0
-2523 0
-2524 0
-2525 0
-2526 0
-2527 0
-2528 0
-2529 0
-2530 0
-2531 0
-2532 0
-2533 0
-2534 0
-2535 0
-2536 0
-2537 0
-2538 0
-2539 0
-2540 0
-2541 0
-2542 0
-2543 0
-2544 0
-2545 0
-2546 0
-2547 0
-2548 0
-2549 0
-2550 0
-2551 0
-2552 0
-2553 0
-2554 0
-2555 0
-2556 0
-2557 0
-2558 0
-2559 0
-2560 0
-2561 0
-2562 0
-2563 0
-2564 0
-2565 0
-2566 0
-2567 0
-2568 0
-2569 0
-2570 0
-2571 0
-2572 0
-2573 0
-2574 0
-2575 0
-2576 0
-2577 0
-2578 0
-2579 0
-2580 0
-2581 0
-2582 0
-2583 0
-1661 0
-1662 0
-1663 0
-1664 0
-1665 0
-1666 0
-1667 0
-1668 0
-1669 0
-1670 0
-1671 0
-1672 0
-1715 0
-1716 0
-1717 0
-1718 0
-1719 0
-1720 0
-1721 0
-1722 0
-1723 0
-1724 0
-1725 0
-1726 0
-1727 0
-1728 0
-1729 0
-1730 0
-1731 0
-1732 0
-1733 0
-1734 0
-1735 0
-1736 0
-1737 0
-1738 0
-1739 0
-1740 0
-1741 0
-1742 0
-1743 0
-1744 0
-1745 0
-1746 0
-1747 0
-1748 0
-1749 0
-1750 0
-1751 0
-1752 0
-1753 0
-1754 0
-1755 0
-1756 0
-1757 0
-1758 0
-1759 0
-1760 0
-1761 0
-1762 0
-1763 0
-1764 0
-1765 0
-1766 0
-1767 0
-1768 0
-1769 0
-1770 0
-1771 0
-1772 0
-1773 0
-1774 0
-1775 0
-1776 0
-1777 0
-1778 0
-1779 0
-1823 0
-1824 0
-1825 0
-1826 0
-1827 0
-1828 0
-1829 0
-1830 0
-1831 0
-1832 0
-1833 0
-1834 0
-1835 0
-1836 0
-1837 0
-1838 0
-1839 0
-1840 0
-1841 0
-1842 0
-1843 0
-1844 0
-1845 0
-1846 0
-1847 0
-1848 0
-1849 0
-1850 0
-1851 0
-1852 0
-1853 0
-1854 0
-1855 0
-1968 0
-1971 0
-1972 0
-1973 0
-1974 0
-1975 0
-1976 0
-1856 0
-1977 0
-1857 0
-1978 0
-1979 0
-1980 0
-1858 0
-1981 0
-1859 0
-1982 0
-1983 0
-1984 0
-1985 0
-1986 0
-1987 0
-1988 0
-1989 0
-1990 0
-1991 0
-1992 0
-1993 0
-1994 0
-1860 0
-1587 0
-1861 0
-1588 0
-1862 0
-1589 0
-1863 0
-1590 0
-1591 0
-1592 0
-1593 0
-1594 0
-1595 0
-1596 0
-1597 0
-1598 0
-1599 0
-1995 0
-1864 0
-1600 0
-1601 0
-1602 0
-1603 0
-1604 0
-1865 0
-1866 0
-1605 0
-1606 0
-1867 0
-1607 0
-1868 0
-1780 0
-1781 0
-1782 0
-1783 0
-1784 0
-1785 0
-1786 0
-1869 0
-1787 0
-1788 0
-1789 0
-1790 0
-1791 0
-1792 0
-1870 0
-1793 0
-1871 0
-1794 0
-1795 0
-1796 0
-1797 0
-1872 0
-1873 0
-1798 0
-1799 0
-1800 0
-1673 0
-1674 0
-1675 0
-1676 0
-1677 0
-1678 0
-1679 0
-1680 0
-1681 0
-1682 0
-1683 0
-1684 0
-1874 0
-1996 0
-1685 0
-1875 0
-1686 0
-1876 0
-1877 0
-1687 0
-1688 0
-1689 0
-1690 0
-1691 0
-1692 0
-1693 0
-1694 0
-1695 0
-1696 0
-1697 0
-1878 0
-1698 0
-1699 0
-1700 0
-1701 0
-1702 0
-1703 0
-1879 0
-1704 0
-1880 0
-1705 0
-1706 0
-1881 0
-1882 0
-1707 0
-1708 0
-1709 0
-1710 0
-1711 0
-1712 0
-1713 0
-1714 0
-1883 0
-1884 0
-1523 0
-1524 0
-1525 0
-1885 0
-1526 0
-1527 0
-1528 0
-1529 0
-1530 0
-1531 0
-1532 0
-1997 0
-1533 0
-1534 0
-1535 0
-1536 0
-1537 0
-1538 0
-1539 0
-1540 0
-1886 0
-1541 0
-1542 0
-1543 0
-1887 0
-1801 0
-1888 0
-1802 0
-1803 0
-1889 0
-1890 0
-1804 0
-1805 0
-1806 0
-1807 0
-1808 0
-1809 0
-1810 0
-1811 0
-1812 0
-1813 0
-1814 0
-1815 0
-1816 0
-1817 0
-1818 0
-1819 0
-1820 0
-1821 0
-1822 0
-1944 0
-1945 0
-1946 0
-1947 0
-1948 0
-1949 0
-1950 0
-1951 0
-1952 0
-1953 0
-1954 0
-1955 0
-1956 0
-1957 0
-1958 0
-1959 0
-1960 0
-1961 0
-1962 0
-1963 0
-1964 0
-1965 0
-1966 0
-1967 0
-1916 0
-1917 0
-1918 0
-1919 0
-1920 0
-1921 0
-1922 0
-1923 0
-1924 0
-1925 0
-1926 0
-1927 0
-1928 0
-1929 0
-1969 0
-1930 0
-1931 0
-1932 0
-1933 0
-1934 0
-1935 0
-1936 0
-1937 0
-1938 0
-1939 0
-1940 0
-1941 0
-1942 0
-1943 0
-1544 0
-1545 0
-1546 0
-1547 0
-1548 0
-1549 0
-1550 0
-1551 0
-1552 0
-1553 0
-1554 0
-1555 0
-1556 0
-1557 0
-1558 0
-1559 0
-1560 0
-1561 0
-1562 0
-1563 0
-1564 0
-1565 0
-1566 0
-1567 0
-1568 0
-1970 0
-1569 0
-1570 0
-1571 0
-1572 0
-1573 0
-1574 0
-1575 0
-1576 0
-1577 0
-1578 0
-1579 0
-1580 0
-1581 0
-1582 0
-1583 0
-1584 0
-1585 0
-1586 0
-1608 0
-1609 0
-1610 0
-1611 0
-1612 0
-1613 0
-1614 0
-1615 0
-1616 0
-1617 0
-1618 0
-1619 0
-1620 0
-1621 0
-1622 0
-1623 0
-1624 0
-1625 0
-1626 0
-1627 0
-1628 0
-1629 0
-1630 0
-1631 0
-1632 0
-1633 0
-1634 0
-1635 0
-1636 0
-1637 0
-1638 0
-1639 0
-1640 0
-1641 0
-1642 0
-1643 0
-1644 0
-1645 0
-1646 0
-1647 0
-1648 0
-1649 0
-1650 0
-1651 0
-1652 0
-1653 0
-1654 0
-1655 0
-1656 0
-1657 0
-1658 0
-1659 0
-1660 0

